20
8	71	57	68	25
7	27	13	49	82
2	53	4	1	97
8	43	37	23	58
4	5	26	56	22
9	46	20	93	92
8	76	14	10	12
2	100	25	29	7
9	99	26	96	22
4	1	24	86	4
5	69	31	45	3
5	33	6	40	100
5	3	18	44	52
2	46	33	45	80
8	42	8	78	59
3	46	26	82	52
5	48	13	85	61
1	72	23	8	97
10	75	20	3	90
1	102	56	7	10
